n_res = 5;
n_events = 12;
n_prec = 17;
source = 1;
sink = 12;
min_lvl = [-2, -5, -2, 0, -2];
max_lvl = [3, -2, 1, 2, 2];
rr = [| 0, -1, 1, 0, 2, 0, -2, -1, -2, -1, 2, 0
      | 0, -1, 0, 0, -1, 0, 0, -1, -2, 2, -2, 0
      | 0, -1, 2, 0, 0, 0, 2, -1, 1, -2, 0, 0
      | 0, 0, 1, 0, -1, 0, 0, 0, 1, 0, 1, 0
      | 0, -1, 2, 0, -1, -2, 0, 1, 2, 1, 0, 0 |];
prec = [| 1, 0, 5
        | 1, 0, 2
        | 1, 0, 3
        | 1, 0, 4
        | 2, 1, 6
        | 3, 13, 8
        | 3, 17, 10
        | 4, -2, 10
        | 5, 8, 11
        | 6, 8, 9
        | 7, 1, 9
        | 8, 10, 7
        | 9, -3, 7
        | 9, 9, 12
        | 10, 10, 12
        | 11, -9, 5
        | 11, 4, 12 |];
